row=9;
column=9;
colour = 9;
Board=[|6,2,1,1,1,1,1,1,5|6,2,2,2,1,1,1,1,5|6,2,2,2,2,2,2,5,5|6,6,6,3,3,3,3,5,5|6,6,3,3,3,7,8,5,9|6,6,6,3,7,7,7,9,9|6,6,6,6,7,7,7,9,9|6,6,6,6,6,4,4,4,4|6,6,6,6,6,6,6,4,4|];
